
Gurobi 11.0.3 (linux64) logging started Mon Dec 15 16:18:30 2025

Set parameter LogFile to value "./log/train/IS_900_5/IS_3.lp.log"
Set parameter TimeLimit to value 3600
Gurobi Optimizer version 11.0.3 build v11.0.3rc0 (linux64 - "Ubuntu 22.04.5 LTS")

CPU model: AMD Ryzen 9 9900X 12-Core Processor, instruction set [SSE2|AVX|AVX2|AVX512]
Thread count: 12 physical cores, 24 logical processors, using up to 24 threads

Optimize a model with 4656 rows, 900 columns and 9104 nonzeros
Model fingerprint: 0xf1169964
Variable types: 0 continuous, 900 integer (900 binary)
Coefficient statistics:
  Matrix range     [1e+00, 1e+00]
  Objective range  [1e+00, 1e+00]
  Bounds range     [1e+00, 1e+00]
  RHS range        [1e+00, 1e+00]
Found heuristic solution: objective 231.0000000
Presolve removed 1001 rows and 0 columns
Presolve time: 0.01s
Presolved: 3655 rows, 900 columns, 8090 nonzeros
Variable types: 0 continuous, 900 integer (900 binary)

Root relaxation: objective 4.150000e+02, 1703 iterations, 0.04 seconds (0.08 work units)

    Nodes    |    Current Node    |     Objective Bounds      |     Work
 Expl Unexpl |  Obj  Depth IntInf | Incumbent    BestBd   Gap | It/Node Time

     0     0  415.00000    0  786  231.00000  415.00000  79.7%     -    0s
H    0     0                     363.0000000  415.00000  14.3%     -    0s
     0     0  407.73147    0  888  363.00000  407.73147  12.3%     -    0s
H    0     0                     374.0000000  407.73147  9.02%     -    0s
H    0     0                     377.0000000  407.73147  8.15%     -    0s
     0     0  407.73112    0  888  377.00000  407.73112  8.15%     -    0s
     0     0  402.26535    0  878  377.00000  402.26535  6.70%     -    0s
     0     0  402.13796    0  879  377.00000  402.13796  6.67%     -    0s
     0     0  402.13312    0  881  377.00000  402.13312  6.67%     -    0s
H    0     0                     379.0000000  402.13106  6.10%     -    0s
     0     0  402.13106    0  880  379.00000  402.13106  6.10%     -    0s
H    0     0                     381.0000000  399.91255  4.96%     -    0s
     0     0  399.91255    0  885  381.00000  399.91255  4.96%     -    0s
     0     0  399.83783    0  885  381.00000  399.83783  4.94%     -    0s
H    0     0                     383.0000000  399.77553  4.38%     -    0s
     0     0  399.77553    0  887  383.00000  399.77553  4.38%     -    0s
     0     0  399.75606    0  886  383.00000  399.75606  4.37%     -    0s
     0     0  399.74174    0  886  383.00000  399.74174  4.37%     -    0s
     0     0  399.73724    0  888  383.00000  399.73724  4.37%     -    0s
     0     0  399.73632    0  888  383.00000  399.73632  4.37%     -    0s
     0     0  398.79167    0  885  383.00000  398.79167  4.12%     -    0s
     0     0  398.69338    0  884  383.00000  398.69338  4.10%     -    0s
     0     0  398.66291    0  885  383.00000  398.66291  4.09%     -    0s
     0     0  398.65369    0  883  383.00000  398.65369  4.09%     -    0s
     0     0  398.65263    0  884  383.00000  398.65263  4.09%     -    0s
     0     0  397.53625    0  877  383.00000  397.53625  3.80%     -    0s
     0     0  397.33113    0  885  383.00000  397.33113  3.74%     -    0s
     0     0  397.30261    0  884  383.00000  397.30261  3.73%     -    0s
     0     0  397.28991    0  886  383.00000  397.28991  3.73%     -    0s
     0     0  397.28460    0  884  383.00000  397.28460  3.73%     -    0s
     0     0  396.69836    0  880  383.00000  396.69836  3.58%     -    0s
     0     0  396.60129    0  881  383.00000  396.60129  3.55%     -    0s
     0     0  396.57234    0  882  383.00000  396.57234  3.54%     -    1s
     0     0  396.56787    0  881  383.00000  396.56787  3.54%     -    1s
     0     0  396.31644    0  882  383.00000  396.31644  3.48%     -    1s
     0     0  396.24993    0  881  383.00000  396.24993  3.46%     -    1s
     0     0  396.22789    0  879  383.00000  396.22789  3.45%     -    1s
     0     0  396.22641    0  881  383.00000  396.22641  3.45%     -    1s
     0     0  396.12643    0  882  383.00000  396.12643  3.43%     -    1s
     0     0  396.10629    0  884  383.00000  396.10629  3.42%     -    1s
     0     0  396.10449    0  881  383.00000  396.10449  3.42%     -    1s
     0     0  395.89564    0  884  383.00000  395.89564  3.37%     -    1s
     0     0  395.85096    0  888  383.00000  395.85096  3.36%     -    1s
     0     0  395.84877    0  890  383.00000  395.84877  3.35%     -    1s
     0     0  395.75686    0  887  383.00000  395.75686  3.33%     -    1s
     0     0  395.72861    0  887  383.00000  395.72861  3.32%     -    1s
     0     0  395.72299    0  890  383.00000  395.72299  3.32%     -    1s
     0     0  395.53586    0  889  383.00000  395.53586  3.27%     -    1s
H    0     0                     384.0000000  395.53586  3.00%     -    1s
     0     0  395.51918    0  888  384.00000  395.51918  3.00%     -    1s
     0     0  395.51807    0  888  384.00000  395.51807  3.00%     -    1s
     0     0  395.31955    0  888  384.00000  395.31955  2.95%     -    1s
     0     0  395.25796    0  885  384.00000  395.25796  2.93%     -    1s
     0     0  395.24360    0  887  384.00000  395.24360  2.93%     -    1s
     0     0  395.23953    0  888  384.00000  395.23953  2.93%     -    1s
     0     0  395.18379    0  887  384.00000  395.18379  2.91%     -    1s
     0     0  395.15680    0  888  384.00000  395.15680  2.91%     -    1s
     0     0  395.14713    0  886  384.00000  395.14713  2.90%     -    1s
     0     0  395.14654    0  886  384.00000  395.14654  2.90%     -    1s
     0     0  395.06356    0  888  384.00000  395.06356  2.88%     -    1s
     0     0  395.04731    0  886  384.00000  395.04731  2.88%     -    1s
     0     0  395.04470    0  889  384.00000  395.04470  2.88%     -    1s
     0     0  394.95318    0  887  384.00000  394.95318  2.85%     -    1s
     0     0  394.93851    0  886  384.00000  394.93851  2.85%     -    1s
     0     0  394.93327    0  887  384.00000  394.93327  2.85%     -    1s
     0     0  394.88300    0  886  384.00000  394.88300  2.83%     -    1s
     0     0  394.88300    0  886  384.00000  394.88300  2.83%     -    1s
     0     2  394.88300    0  886  384.00000  394.88300  2.83%     -    1s
   433   155     cutoff   26       384.00000  393.98688  2.60%   442    5s
  3045   229  385.43288    8  828  384.00000  387.38213  0.88%   300   10s

Cutting planes:
  Gomory: 1
  Zero half: 250
  RLT: 249
  BQP: 63

Explored 3564 nodes (996313 simplex iterations) in 10.26 seconds (34.27 work units)
Thread count was 24 (of 24 available processors)

Solution count 8: 384 383 381 ... 231

Optimal solution found (tolerance 1.00e-04)
Best objective 3.840000000000e+02, best bound 3.840000000000e+02, gap 0.0000%

User-callback calls 8960, time in user-callback 0.00 sec
